c "random instance"
p edges 150 2254
e 1 4
e 1 5
e 1 11
e 1 13
e 1 15
e 1 20
e 1 26
e 1 32
e 1 33
e 1 35
e 1 36
e 1 40
e 1 41
e 1 46
e 1 49
e 1 54
e 1 56
e 1 66
e 1 67
e 1 69
e 1 70
e 1 74
e 1 77
e 1 80
e 1 81
e 1 84
e 1 87
e 1 96
e 1 107
e 1 112
e 1 116
e 1 120
e 1 129
e 1 134
e 1 140
e 1 141
e 2 3
e 2 14
e 2 16
e 2 28
e 2 35
e 2 37
e 2 38
e 2 40
e 2 43
e 2 47
e 2 50
e 2 57
e 2 58
e 2 59
e 2 62
e 2 88
e 2 105
e 2 106
e 2 107
e 2 115
e 2 118
e 2 123
e 2 132
e 2 136
e 2 140
e 2 149
e 3 12
e 3 13
e 3 16
e 3 17
e 3 18
e 3 20
e 3 25
e 3 26
e 3 27
e 3 35
e 3 36
e 3 37
e 3 44
e 3 46
e 3 47
e 3 54
e 3 65
e 3 74
e 3 75
e 3 80
e 3 84
e 3 85
e 3 87
e 3 89
e 3 90
e 3 97
e 3 106
e 3 110
e 3 112
e 3 115
e 3 128
e 3 129
e 3 133
e 3 142
e 4 12
e 4 21
e 4 28
e 4 35
e 4 36
e 4 37
e 4 40
e 4 45
e 4 48
e 4 65
e 4 79
e 4 81
e 4 91
e 4 92
e 4 95
e 4 101
e 4 106
e 4 112
e 4 113
e 4 116
e 4 117
e 4 121
e 4 125
e 4 128
e 4 131
e 4 133
e 4 147
e 5 10
e 5 11
e 5 13
e 5 18
e 5 23
e 5 27
e 5 29
e 5 35
e 5 38
e 5 41
e 5 44
e 5 46
e 5 52
e 5 54
e 5 60
e 5 67
e 5 69
e 5 79
e 5 80
e 5 84
e 5 88
e 5 97
e 5 103
e 5 104
e 5 106
e 5 107
e 5 108
e 5 117
e 5 118
e 5 119
e 5 121
e 5 124
e 5 130
e 5 134
e 5 150
e 6 10
e 6 13
e 6 15
e 6 27
e 6 37
e 6 43
e 6 46
e 6 53
e 6 54
e 6 55
e 6 56
e 6 66
e 6 67
e 6 68
e 6 96
e 6 97
e 6 98
e 6 110
e 6 111
e 6 117
e 6 130
e 6 131
e 6 134
e 6 135
e 6 142
e 6 147
e 6 149
e 6 150
e 7 9
e 7 12
e 7 13
e 7 28
e 7 29
e 7 30
e 7 31
e 7 50
e 7 51
e 7 53
e 7 54
e 7 66
e 7 85
e 7 86
e 7 88
e 7 89
e 7 91
e 7 100
e 7 103
e 7 107
e 7 109
e 7 118
e 7 125
e 7 128
e 7 131
e 7 134
e 7 137
e 7 146
e 7 148
e 8 9
e 8 10
e 8 13
e 8 14
e 8 16
e 8 22
e 8 30
e 8 31
e 8 37
e 8 40
e 8 41
e 8 49
e 8 60
e 8 61
e 8 62
e 8 64
e 8 65
e 8 68
e 8 72
e 8 76
e 8 79
e 8 84
e 8 85
e 8 92
e 8 93
e 8 98
e 8 103
e 8 108
e 8 110
e 8 111
e 8 121
e 9 12
e 9 16
e 9 17
e 9 20
e 9 23
e 9 31
e 9 38
e 9 47
e 9 58
e 9 59
e 9 64
e 9 65
e 9 72
e 9 86
e 9 99
e 9 103
e 9 108
e 9 112
e 9 114
e 9 117
e 9 118
e 9 120
e 9 121
e 9 127
e 9 132
e 9 134
e 9 135
e 9 137
e 9 141
e 9 149
e 10 12
e 10 20
e 10 21
e 10 24
e 10 26
e 10 28
e 10 32
e 10 35
e 10 39
e 10 41
e 10 50
e 10 51
e 10 57
e 10 58
e 10 59
e 10 60
e 10 62
e 10 65
e 10 72
e 10 84
e 10 86
e 10 88
e 10 96
e 10 99
e 10 110
e 10 114
e 10 118
e 10 131
e 10 132
e 10 133
e 10 139
e 10 140
e 10 141
e 10 146
e 10 149
e 11 15
e 11 17
e 11 27
e 11 28
e 11 29
e 11 31
e 11 41
e 11 44
e 11 45
e 11 47
e 11 48
e 11 51
e 11 57
e 11 60
e 11 61
e 11 75
e 11 96
e 11 97
e 11 101
e 11 103
e 11 104
e 11 107
e 11 109
e 11 113
e 11 117
e 11 128
e 11 130
e 12 14
e 12 19
e 12 31
e 12 32
e 12 45
e 12 58
e 12 59
e 12 62
e 12 64
e 12 79
e 12 82
e 12 85
e 12 91
e 12 98
e 12 99
e 12 111
e 12 112
e 12 115
e 12 119
e 12 127
e 12 130
e 12 136
e 12 137
e 12 138
e 12 139
e 12 140
e 12 143
e 12 144
e 12 148
e 12 149
e 13 16
e 13 31
e 13 40
e 13 41
e 13 46
e 13 57
e 13 58
e 13 62
e 13 63
e 13 64
e 13 66
e 13 93
e 13 97
e 13 103
e 13 105
e 13 111
e 13 124
e 13 126
e 13 129
e 13 140
e 13 145
e 13 149
e 13 150
e 14 20
e 14 23
e 14 29
e 14 40
e 14 47
e 14 48
e 14 51
e 14 59
e 14 60
e 14 62
e 14 64
e 14 67
e 14 73
e 14 78
e 14 83
e 14 94
e 14 101
e 14 107
e 14 121
e 14 125
e 14 130
e 14 144
e 14 145
e 14 147
e 14 148
e 15 17
e 15 23
e 15 25
e 15 32
e 15 33
e 15 37
e 15 39
e 15 41
e 15 44
e 15 46
e 15 50
e 15 56
e 15 58
e 15 60
e 15 69
e 15 76
e 15 80
e 15 87
e 15 102
e 15 109
e 15 113
e 15 120
e 15 122
e 15 123
e 15 124
e 15 142
e 15 145
e 16 18
e 16 25
e 16 37
e 16 39
e 16 44
e 16 58
e 16 63
e 16 70
e 16 77
e 16 82
e 16 85
e 16 89
e 16 93
e 16 95
e 16 100
e 16 103
e 16 104
e 16 112
e 16 117
e 16 134
e 16 138
e 16 139
e 16 140
e 16 150
e 17 21
e 17 23
e 17 27
e 17 28
e 17 30
e 17 33
e 17 38
e 17 50
e 17 51
e 17 55
e 17 56
e 17 62
e 17 78
e 17 97
e 17 107
e 17 120
e 17 121
e 17 135
e 17 141
e 17 142
e 17 144
e 17 145
e 18 22
e 18 24
e 18 26
e 18 30
e 18 34
e 18 42
e 18 51
e 18 53
e 18 67
e 18 70
e 18 77
e 18 85
e 18 92
e 18 93
e 18 117
e 18 125
e 18 138
e 19 20
e 19 22
e 19 28
e 19 35
e 19 57
e 19 60
e 19 64
e 19 74
e 19 80
e 19 97
e 19 104
e 19 105
e 19 108
e 19 117
e 19 118
e 19 119
e 19 122
e 19 128
e 19 129
e 19 131
e 19 134
e 19 140
e 20 21
e 20 24
e 20 33
e 20 35
e 20 36
e 20 43
e 20 47
e 20 48
e 20 52
e 20 56
e 20 66
e 20 69
e 20 72
e 20 74
e 20 83
e 20 89
e 20 93
e 20 94
e 20 100
e 20 105
e 20 108
e 20 118
e 20 120
e 20 123
e 20 128
e 20 131
e 20 133
e 20 135
e 20 142
e 20 143
e 20 144
e 20 150
e 21 26
e 21 30
e 21 35
e 21 44
e 21 49
e 21 52
e 21 55
e 21 56
e 21 58
e 21 68
e 21 74
e 21 75
e 21 77
e 21 87
e 21 88
e 21 89
e 21 96
e 21 103
e 21 109
e 21 110
e 21 112
e 21 115
e 21 119
e 21 121
e 21 129
e 21 131
e 21 135
e 21 140
e 21 148
e 22 23
e 22 27
e 22 30
e 22 41
e 22 47
e 22 49
e 22 61
e 22 66
e 22 71
e 22 77
e 22 80
e 22 83
e 22 85
e 22 93
e 22 96
e 22 99
e 22 106
e 22 120
e 22 121
e 22 124
e 22 134
e 22 145
e 22 148
e 23 34
e 23 48
e 23 49
e 23 56
e 23 67
e 23 73
e 23 76
e 23 85
e 23 90
e 23 93
e 23 105
e 23 115
e 23 116
e 23 120
e 23 121
e 23 124
e 23 125
e 23 126
e 23 131
e 23 132
e 23 143
e 23 146
e 24 25
e 24 31
e 24 33
e 24 35
e 24 38
e 24 41
e 24 49
e 24 51
e 24 61
e 24 70
e 24 72
e 24 74
e 24 75
e 24 78
e 24 88
e 24 99
e 24 104
e 24 106
e 24 108
e 24 113
e 24 117
e 24 119
e 24 122
e 24 127
e 24 128
e 24 130
e 24 140
e 24 147
e 25 36
e 25 37
e 25 43
e 25 48
e 25 53
e 25 62
e 25 63
e 25 68
e 25 75
e 25 85
e 25 87
e 25 93
e 25 105
e 25 107
e 25 108
e 25 118
e 25 119
e 25 144
e 25 145
e 26 59
e 26 66
e 26 73
e 26 87
e 26 92
e 26 94
e 26 96
e 26 101
e 26 107
e 26 115
e 26 118
e 26 124
e 26 130
e 26 134
e 26 136
e 26 138
e 26 144
e 26 147
e 26 150
e 27 32
e 27 34
e 27 45
e 27 48
e 27 53
e 27 55
e 27 81
e 27 83
e 27 89
e 27 96
e 27 97
e 27 98
e 27 102
e 27 106
e 27 116
e 27 118
e 27 120
e 27 122
e 27 123
e 27 133
e 27 137
e 27 150
e 28 38
e 28 43
e 28 47
e 28 48
e 28 56
e 28 59
e 28 63
e 28 67
e 28 72
e 28 75
e 28 77
e 28 79
e 28 82
e 28 84
e 28 93
e 28 95
e 28 101
e 28 103
e 28 105
e 28 118
e 28 126
e 28 133
e 28 136
e 28 137
e 28 138
e 28 139
e 28 147
e 28 148
e 29 31
e 29 35
e 29 40
e 29 49
e 29 51
e 29 55
e 29 67
e 29 68
e 29 69
e 29 70
e 29 72
e 29 74
e 29 76
e 29 80
e 29 82
e 29 84
e 29 85
e 29 89
e 29 93
e 29 95
e 29 102
e 29 106
e 29 107
e 29 108
e 29 111
e 29 114
e 29 118
e 29 134
e 29 138
e 29 139
e 29 142
e 30 31
e 30 39
e 30 41
e 30 43
e 30 50
e 30 51
e 30 55
e 30 65
e 30 69
e 30 79
e 30 99
e 30 111
e 30 114
e 30 115
e 30 118
e 30 119
e 30 126
e 30 127
e 30 132
e 30 136
e 30 144
e 31 41
e 31 42
e 31 50
e 31 52
e 31 53
e 31 69
e 31 76
e 31 78
e 31 83
e 31 95
e 31 96
e 31 103
e 31 104
e 31 106
e 31 109
e 31 110
e 31 122
e 31 125
e 31 127
e 31 133
e 31 137
e 31 148
e 32 44
e 32 53
e 32 60
e 32 61
e 32 69
e 32 73
e 32 75
e 32 76
e 32 79
e 32 84
e 32 86
e 32 88
e 32 89
e 32 91
e 32 92
e 32 93
e 32 94
e 32 100
e 32 119
e 32 121
e 32 122
e 32 128
e 32 130
e 32 133
e 32 134
e 32 149
e 33 35
e 33 47
e 33 49
e 33 52
e 33 62
e 33 75
e 33 76
e 33 78
e 33 80
e 33 90
e 33 92
e 33 97
e 33 99
e 33 114
e 33 117
e 33 122
e 33 135
e 33 146
e 33 147
e 33 150
e 34 35
e 34 37
e 34 45
e 34 49
e 34 51
e 34 54
e 34 70
e 34 75
e 34 77
e 34 81
e 34 85
e 34 88
e 34 89
e 34 93
e 34 97
e 34 99
e 34 100
e 34 104
e 34 108
e 34 110
e 34 114
e 34 120
e 34 121
e 34 127
e 34 130
e 34 137
e 34 142
e 34 143
e 34 148
e 35 41
e 35 44
e 35 46
e 35 49
e 35 50
e 35 58
e 35 61
e 35 81
e 35 88
e 35 90
e 35 92
e 35 93
e 35 95
e 35 109
e 35 113
e 35 129
e 35 131
e 35 132
e 35 136
e 35 141
e 35 144
e 35 145
e 35 146
e 36 43
e 36 44
e 36 47
e 36 53
e 36 56
e 36 66
e 36 73
e 36 74
e 36 77
e 36 83
e 36 89
e 36 90
e 36 96
e 36 102
e 36 109
e 36 112
e 36 114
e 36 133
e 36 138
e 36 142
e 36 143
e 36 144
e 36 145
e 36 149
e 36 150
e 37 38
e 37 41
e 37 46
e 37 48
e 37 50
e 37 51
e 37 52
e 37 66
e 37 70
e 37 73
e 37 77
e 37 82
e 37 84
e 37 92
e 37 94
e 37 95
e 37 97
e 37 98
e 37 105
e 37 112
e 37 119
e 37 125
e 37 127
e 37 128
e 37 129
e 37 131
e 37 141
e 37 148
e 38 43
e 38 55
e 38 60
e 38 61
e 38 75
e 38 79
e 38 80
e 38 102
e 38 103
e 38 105
e 38 106
e 38 108
e 38 110
e 38 111
e 38 116
e 38 117
e 38 123
e 38 126
e 38 127
e 38 131
e 38 134
e 38 135
e 38 137
e 38 144
e 39 56
e 39 57
e 39 61
e 39 65
e 39 67
e 39 71
e 39 75
e 39 81
e 39 89
e 39 93
e 39 96
e 39 98
e 39 102
e 39 104
e 39 114
e 39 119
e 39 121
e 39 123
e 39 125
e 39 129
e 39 130
e 39 137
e 39 139
e 39 143
e 39 149
e 40 45
e 40 57
e 40 59
e 40 65
e 40 71
e 40 75
e 40 84
e 40 95
e 40 98
e 40 106
e 40 108
e 40 112
e 40 127
e 40 129
e 40 130
e 40 133
e 40 134
e 40 135
e 40 136
e 40 137
e 41 43
e 41 51
e 41 52
e 41 56
e 41 64
e 41 76
e 41 78
e 41 113
e 41 125
e 41 126
e 41 127
e 41 132
e 41 135
e 41 139
e 41 140
e 41 147
e 42 45
e 42 51
e 42 57
e 42 66
e 42 73
e 42 76
e 42 79
e 42 85
e 42 88
e 42 96
e 42 97
e 42 102
e 42 108
e 42 119
e 42 129
e 42 130
e 42 134
e 43 59
e 43 61
e 43 62
e 43 66
e 43 74
e 43 79
e 43 89
e 43 94
e 43 97
e 43 101
e 43 104
e 43 105
e 43 115
e 43 132
e 43 135
e 43 136
e 43 139
e 43 140
e 43 147
e 43 150
e 44 46
e 44 48
e 44 68
e 44 75
e 44 94
e 44 96
e 44 109
e 44 117
e 44 118
e 44 121
e 44 126
e 44 134
e 44 137
e 44 147
e 44 150
e 45 60
e 45 63
e 45 69
e 45 77
e 45 113
e 45 119
e 45 121
e 45 124
e 45 125
e 45 126
e 45 132
e 45 136
e 45 139
e 45 146
e 46 59
e 46 71
e 46 73
e 46 74
e 46 83
e 46 87
e 46 91
e 46 103
e 46 113
e 46 116
e 46 117
e 46 118
e 46 121
e 46 122
e 46 125
e 46 128
e 46 131
e 46 133
e 46 144
e 46 146
e 46 147
e 46 148
e 47 52
e 47 53
e 47 64
e 47 75
e 47 84
e 47 88
e 47 98
e 47 99
e 47 104
e 47 105
e 47 107
e 47 110
e 47 112
e 47 122
e 47 124
e 47 127
e 47 130
e 47 136
e 47 141
e 48 49
e 48 56
e 48 57
e 48 58
e 48 64
e 48 65
e 48 71
e 48 72
e 48 79
e 48 81
e 48 82
e 48 88
e 48 98
e 48 105
e 48 106
e 48 107
e 48 108
e 48 109
e 48 120
e 48 122
e 48 126
e 48 135
e 48 141
e 48 143
e 48 144
e 49 55
e 49 58
e 49 69
e 49 70
e 49 79
e 49 82
e 49 84
e 49 90
e 49 94
e 49 103
e 49 104
e 49 111
e 49 113
e 49 116
e 49 118
e 49 126
e 49 136
e 49 137
e 49 143
e 49 146
e 49 147
e 49 150
e 50 51
e 50 52
e 50 53
e 50 60
e 50 61
e 50 67
e 50 76
e 50 82
e 50 89
e 50 96
e 50 97
e 50 101
e 50 102
e 50 107
e 50 121
e 50 125
e 50 132
e 50 137
e 50 138
e 50 147
e 51 55
e 51 57
e 51 58
e 51 59
e 51 60
e 51 62
e 51 66
e 51 73
e 51 75
e 51 76
e 51 80
e 51 92
e 51 93
e 51 101
e 51 102
e 51 105
e 51 111
e 51 112
e 51 118
e 51 130
e 51 132
e 51 134
e 51 142
e 52 54
e 52 56
e 52 64
e 52 65
e 52 66
e 52 68
e 52 75
e 52 76
e 52 78
e 52 88
e 52 91
e 52 102
e 52 106
e 52 113
e 52 115
e 52 120
e 52 123
e 52 127
e 52 128
e 52 138
e 52 141
e 52 145
e 52 149
e 53 55
e 53 66
e 53 69
e 53 76
e 53 84
e 53 85
e 53 86
e 53 95
e 53 98
e 53 106
e 53 120
e 53 134
e 53 140
e 53 143
e 53 144
e 53 150
e 54 55
e 54 57
e 54 63
e 54 65
e 54 68
e 54 72
e 54 73
e 54 76
e 54 77
e 54 79
e 54 84
e 54 85
e 54 103
e 54 106
e 54 109
e 54 113
e 54 114
e 54 115
e 54 124
e 54 138
e 54 148
e 54 150
e 55 57
e 55 60
e 55 63
e 55 66
e 55 78
e 55 93
e 55 95
e 55 98
e 55 101
e 55 102
e 55 115
e 55 120
e 55 126
e 55 127
e 55 129
e 55 131
e 55 134
e 55 136
e 55 138
e 55 140
e 55 142
e 55 146
e 55 150
e 56 78
e 56 80
e 56 83
e 56 84
e 56 92
e 56 96
e 56 97
e 56 98
e 56 100
e 56 101
e 56 105
e 56 108
e 56 112
e 56 122
e 56 129
e 56 134
e 56 138
e 56 139
e 56 142
e 57 67
e 57 74
e 57 84
e 57 87
e 57 92
e 57 99
e 57 111
e 57 112
e 57 114
e 57 121
e 57 123
e 57 135
e 57 138
e 57 147
e 57 148
e 57 149
e 58 65
e 58 67
e 58 70
e 58 98
e 58 99
e 58 111
e 58 121
e 58 133
e 58 134
e 58 135
e 58 137
e 58 142
e 58 143
e 58 145
e 59 70
e 59 86
e 59 87
e 59 88
e 59 96
e 59 104
e 59 105
e 59 113
e 59 117
e 59 119
e 59 130
e 59 133
e 59 134
e 59 136
e 60 63
e 60 66
e 60 71
e 60 73
e 60 77
e 60 86
e 60 95
e 60 101
e 60 112
e 60 117
e 60 118
e 60 123
e 60 124
e 60 126
e 60 131
e 60 134
e 60 137
e 60 141
e 60 145
e 60 150
e 61 68
e 61 71
e 61 78
e 61 81
e 61 89
e 61 95
e 61 96
e 61 104
e 61 122
e 61 125
e 61 126
e 61 127
e 61 128
e 61 137
e 61 138
e 61 143
e 61 145
e 61 147
e 62 63
e 62 65
e 62 67
e 62 74
e 62 79
e 62 92
e 62 95
e 62 101
e 62 103
e 62 106
e 62 114
e 62 119
e 62 120
e 62 128
e 62 137
e 62 147
e 63 69
e 63 87
e 63 89
e 63 90
e 63 96
e 63 100
e 63 102
e 63 105
e 63 106
e 63 111
e 63 119
e 63 122
e 63 125
e 63 126
e 63 133
e 63 140
e 63 146
e 63 147
e 64 77
e 64 80
e 64 81
e 64 94
e 64 95
e 64 97
e 64 98
e 64 102
e 64 103
e 64 104
e 64 109
e 64 110
e 64 119
e 64 121
e 64 137
e 64 141
e 64 142
e 64 149
e 65 73
e 65 85
e 65 94
e 65 100
e 65 101
e 65 103
e 65 108
e 65 111
e 65 112
e 65 117
e 65 129
e 65 144
e 66 83
e 66 86
e 66 90
e 66 91
e 66 93
e 66 94
e 66 95
e 66 96
e 66 98
e 66 103
e 66 109
e 66 112
e 66 122
e 66 128
e 66 134
e 66 136
e 66 150
e 67 76
e 67 80
e 67 82
e 67 83
e 67 84
e 67 90
e 67 91
e 67 106
e 67 122
e 67 124
e 67 135
e 67 138
e 67 142
e 67 144
e 67 145
e 67 150
e 68 71
e 68 73
e 68 78
e 68 79
e 68 80
e 68 81
e 68 90
e 68 101
e 68 103
e 68 104
e 68 116
e 68 119
e 68 122
e 68 132
e 68 139
e 68 140
e 68 146
e 68 149
e 69 77
e 69 80
e 69 83
e 69 84
e 69 85
e 69 88
e 69 90
e 69 91
e 69 94
e 69 96
e 69 98
e 69 101
e 69 109
e 69 128
e 69 132
e 69 135
e 69 142
e 69 144
e 69 145
e 69 146
e 69 147
e 70 71
e 70 74
e 70 77
e 70 80
e 70 84
e 70 89
e 70 91
e 70 101
e 70 106
e 70 116
e 70 118
e 70 121
e 70 122
e 70 123
e 70 127
e 70 131
e 70 132
e 70 139
e 70 144
e 71 83
e 71 85
e 71 88
e 71 97
e 71 101
e 71 112
e 71 114
e 71 119
e 71 121
e 71 124
e 71 127
e 71 133
e 71 135
e 71 137
e 71 147
e 71 149
e 72 73
e 72 81
e 72 94
e 72 95
e 72 96
e 72 97
e 72 98
e 72 116
e 72 121
e 72 126
e 72 127
e 72 128
e 72 146
e 72 149
e 73 75
e 73 80
e 73 81
e 73 83
e 73 85
e 73 87
e 73 94
e 73 99
e 73 104
e 73 105
e 73 107
e 73 108
e 73 109
e 73 111
e 73 118
e 73 120
e 73 122
e 73 133
e 73 138
e 73 140
e 73 143
e 73 146
e 74 83
e 74 84
e 74 89
e 74 91
e 74 95
e 74 109
e 74 111
e 74 114
e 74 118
e 74 121
e 74 130
e 74 131
e 74 136
e 74 143
e 75 76
e 75 79
e 75 82
e 75 89
e 75 92
e 75 93
e 75 107
e 75 110
e 75 113
e 75 115
e 75 124
e 75 126
e 75 132
e 75 141
e 75 148
e 76 88
e 76 89
e 76 92
e 76 100
e 76 102
e 76 107
e 76 111
e 76 118
e 76 119
e 76 129
e 76 137
e 76 144
e 77 84
e 77 95
e 77 99
e 77 103
e 77 107
e 77 108
e 77 109
e 77 110
e 77 111
e 77 118
e 77 120
e 77 126
e 77 128
e 77 139
e 77 141
e 77 147
e 78 79
e 78 81
e 78 91
e 78 99
e 78 101
e 78 102
e 78 113
e 78 115
e 78 118
e 78 122
e 78 126
e 78 132
e 78 133
e 78 134
e 78 140
e 78 142
e 78 145
e 79 84
e 79 86
e 79 88
e 79 100
e 79 108
e 79 112
e 79 114
e 79 115
e 79 125
e 79 128
e 79 129
e 79 130
e 79 135
e 79 142
e 79 144
e 80 81
e 80 86
e 80 87
e 80 91
e 80 96
e 80 99
e 80 104
e 80 105
e 80 115
e 80 119
e 80 123
e 80 126
e 80 127
e 80 128
e 80 133
e 81 82
e 81 86
e 81 92
e 81 97
e 81 100
e 81 105
e 81 109
e 81 111
e 81 112
e 81 114
e 81 116
e 81 119
e 81 122
e 81 130
e 81 133
e 81 135
e 81 143
e 81 149
e 82 83
e 82 84
e 82 85
e 82 86
e 82 91
e 82 100
e 82 102
e 82 105
e 82 114
e 82 115
e 82 125
e 82 126
e 82 130
e 82 141
e 82 149
e 82 150
e 83 87
e 83 88
e 83 103
e 83 104
e 83 105
e 83 106
e 83 108
e 83 109
e 83 116
e 83 122
e 83 125
e 83 126
e 83 131
e 83 136
e 83 139
e 83 140
e 84 87
e 84 88
e 84 92
e 84 96
e 84 100
e 84 101
e 84 111
e 84 113
e 84 118
e 84 119
e 84 124
e 84 128
e 84 140
e 84 145
e 85 86
e 85 89
e 85 97
e 85 98
e 85 112
e 85 113
e 85 116
e 85 119
e 85 120
e 85 126
e 85 129
e 85 132
e 85 137
e 85 145
e 85 149
e 86 88
e 86 91
e 86 93
e 86 100
e 86 118
e 86 133
e 86 136
e 86 137
e 86 140
e 86 143
e 87 88
e 87 93
e 87 100
e 87 113
e 87 115
e 87 119
e 87 124
e 87 126
e 87 127
e 87 132
e 87 133
e 87 134
e 87 136
e 87 137
e 87 145
e 87 150
e 88 96
e 88 99
e 88 105
e 88 109
e 88 110
e 88 111
e 88 122
e 88 127
e 88 139
e 88 145
e 88 148
e 88 149
e 89 91
e 89 93
e 89 94
e 89 96
e 89 97
e 89 101
e 89 111
e 89 114
e 89 118
e 89 131
e 89 133
e 90 99
e 90 100
e 90 101
e 90 106
e 90 107
e 90 110
e 90 112
e 90 113
e 90 115
e 90 117
e 90 118
e 90 121
e 90 136
e 90 144
e 90 150
e 91 109
e 91 114
e 91 115
e 91 116
e 91 118
e 91 121
e 91 125
e 91 126
e 91 130
e 91 135
e 91 137
e 91 138
e 91 141
e 92 94
e 92 101
e 92 102
e 92 103
e 92 104
e 92 106
e 92 122
e 92 149
e 92 150
e 93 100
e 93 105
e 93 106
e 93 115
e 93 116
e 93 117
e 93 122
e 93 129
e 93 134
e 93 136
e 93 137
e 93 141
e 93 143
e 93 147
e 93 148
e 94 105
e 94 106
e 94 113
e 94 120
e 94 123
e 94 127
e 94 131
e 94 137
e 95 103
e 95 110
e 95 112
e 95 115
e 95 116
e 95 134
e 95 136
e 95 142
e 96 98
e 96 99
e 96 103
e 96 111
e 96 113
e 96 114
e 96 115
e 96 125
e 96 127
e 96 129
e 96 138
e 96 139
e 96 145
e 96 149
e 97 98
e 97 105
e 97 107
e 97 108
e 97 111
e 97 119
e 97 120
e 97 126
e 97 128
e 97 129
e 97 130
e 97 138
e 97 139
e 97 141
e 97 143
e 97 145
e 97 146
e 98 103
e 98 105
e 98 109
e 98 113
e 98 114
e 98 126
e 98 132
e 98 133
e 98 135
e 98 136
e 98 142
e 98 146
e 98 148
e 99 101
e 99 106
e 99 114
e 99 136
e 99 150
e 100 107
e 100 113
e 100 114
e 100 116
e 100 119
e 100 122
e 100 125
e 100 131
e 100 134
e 100 138
e 101 123
e 101 139
e 101 144
e 101 150
e 102 113
e 102 114
e 102 117
e 102 120
e 102 124
e 102 125
e 102 134
e 102 135
e 102 136
e 102 139
e 102 144
e 102 146
e 103 104
e 103 108
e 103 119
e 103 120
e 103 128
e 103 129
e 103 130
e 103 134
e 103 135
e 103 137
e 103 139
e 103 148
e 104 110
e 104 112
e 104 113
e 104 119
e 104 136
e 104 140
e 104 146
e 104 149
e 104 150
e 105 107
e 105 115
e 105 116
e 105 118
e 105 133
e 105 140
e 105 143
e 105 146
e 105 148
e 105 150
e 106 110
e 106 113
e 106 127
e 106 133
e 106 135
e 106 142
e 107 109
e 107 120
e 107 122
e 107 126
e 107 128
e 107 134
e 107 142
e 108 109
e 108 110
e 108 115
e 108 118
e 108 119
e 108 122
e 108 123
e 108 126
e 108 127
e 108 129
e 108 130
e 108 134
e 108 137
e 108 138
e 108 142
e 108 143
e 108 146
e 109 114
e 109 119
e 109 140
e 109 146
e 110 115
e 110 140
e 110 143
e 111 117
e 111 119
e 111 129
e 111 136
e 111 144
e 111 146
e 112 115
e 112 124
e 112 133
e 112 135
e 112 138
e 112 143
e 112 147
e 112 149
e 113 119
e 113 126
e 113 142
e 114 127
e 114 129
e 114 133
e 114 135
e 114 146
e 115 117
e 115 118
e 115 120
e 115 128
e 115 129
e 115 131
e 115 141
e 115 150
e 116 122
e 116 141
e 116 148
e 117 127
e 117 128
e 117 129
e 117 134
e 117 138
e 117 139
e 117 142
e 117 150
e 118 119
e 118 121
e 118 124
e 118 127
e 118 130
e 118 131
e 118 135
e 118 140
e 118 145
e 118 149
e 119 123
e 119 129
e 119 133
e 119 136
e 119 137
e 119 138
e 119 143
e 119 145
e 119 147
e 119 150
e 120 121
e 120 123
e 120 130
e 120 139
e 120 140
e 120 143
e 121 123
e 121 127
e 121 128
e 121 131
e 121 148
e 121 150
e 122 123
e 122 127
e 122 128
e 122 136
e 122 137
e 122 138
e 123 127
e 123 136
e 124 138
e 124 143
e 124 147
e 124 148
e 125 131
e 125 134
e 125 136
e 125 137
e 125 141
e 125 142
e 125 146
e 125 147
e 126 129
e 126 134
e 126 137
e 126 140
e 126 141
e 126 145
e 126 146
e 126 149
e 127 133
e 127 134
e 127 136
e 127 141
e 127 150
e 128 130
e 128 132
e 128 136
e 128 140
e 128 142
e 128 143
e 128 145
e 128 148
e 129 138
e 129 143
e 129 147
e 129 148
e 130 134
e 130 148
e 131 132
e 131 140
e 131 142
e 131 144
e 131 149
e 132 135
e 132 141
e 132 148
e 132 149
e 133 143
e 133 149
e 134 137
e 134 139
e 134 140
e 135 139
e 135 142
e 135 144
e 135 147
e 136 142
e 136 144
e 136 148
e 136 150
e 137 143
e 137 146
e 138 139
e 138 143
e 138 145
e 138 148
e 138 149
e 139 140
e 139 145
e 139 147
e 141 142
e 141 143
e 141 145
e 141 147
e 141 149
e 143 146
e 143 147
e 145 148
e 145 150
e 148 149
